Instance: E253-27k.dat
Class:  1
252 --- number of customers (no depot)
27 --- number of vehicles
252 --- number of items
Capacity - height - width of vehicles
  1000     40     20
Node - x - y - demand  Readytime Duetime
  0.00    0.00   0.00   0.00 0       255.00
  1.00    3.00   1.00 300.00  94.00  120.00
  2.00    3.00   3.00 300.00  16.00   43.00
  3.00    1.00   3.00 300.00 115.00  134.00
  4.00   -1.00   3.00 300.00 118.00  135.00
  5.00   -3.00   3.00 300.00  30.00   53.00
  6.00   -3.00   1.00 300.00 117.00  143.00
  7.00   -3.00  -1.00 300.00  55.00   72.00
  8.00   -3.00  -3.00 300.00 146.00  162.00
  9.00   -1.00  -3.00 300.00 141.00  158.00
 10.00    1.00  -3.00 300.00 102.00  131.00
 11.00    3.00  -3.00 300.00  29.00   46.00
 12.00    3.00  -1.00 300.00  76.00  101.00
 13.00    5.00   1.00 180.00  12.00   38.00
 14.00    5.00   3.00 180.00  28.00   47.00
 15.00    5.00   5.00 180.00  29.00   48.00
 16.00    3.00   5.00 180.00  20.00   49.00
 17.00    1.00   5.00 180.00  90.00  110.00
 18.00   -1.00   5.00 180.00 104.00  133.00
 19.00   -3.00   5.00 180.00  67.00   85.00
 20.00   -5.00   5.00 180.00  72.00   96.00
 21.00   -5.00   3.00 180.00  96.00  119.00
 22.00   -5.00   1.00 180.00  71.00  101.00
 23.00   -5.00  -1.00 180.00  42.00   59.00
 24.00   -5.00  -3.00 180.00  76.00   98.00
 25.00   -5.00  -5.00 180.00  76.00   91.00
 26.00   -3.00  -5.00 180.00 103.00  124.00
 27.00   -1.00  -5.00 180.00  80.00  105.00
 28.00    1.00  -5.00 180.00   2.00   31.00
 29.00    3.00  -5.00 180.00 129.00  153.00
 30.00    5.00  -5.00 180.00  15.00   32.00
 31.00    5.00  -3.00 180.00 177.00  199.00
 32.00    5.00  -1.00 180.00  63.00   89.00
 33.00    7.00   1.00 128.00  15.00   30.00
 34.00    7.00   3.00 128.00  13.00   36.00
 35.00    7.00   5.00 128.00 203.00  225.00
 36.00    7.00   7.00 128.00 130.00  159.00
 37.00    5.00   7.00 128.00 146.00  175.00
 38.00    3.00   7.00 128.00  24.00   40.00
 39.00    1.00   7.00 128.00  79.00  102.00
 40.00   -1.00   7.00 128.00  40.00   59.00
 41.00   -3.00   7.00 128.00 171.00  200.00
 42.00   -5.00   7.00 128.00  69.00   97.00
 43.00   -7.00   7.00 128.00 150.00  175.00
 44.00   -7.00   5.00 128.00  96.00  118.00
 45.00   -7.00   3.00 128.00 114.00  135.00
 46.00   -7.00   1.00 128.00  25.00   42.00
 47.00   -7.00  -1.00 128.00  54.00   74.00
 48.00   -7.00  -3.00 128.00 132.00  147.00
 49.00   -7.00  -5.00 128.00 147.00  166.00
 50.00   -7.00  -7.00 128.00  55.00   73.00
 51.00   -5.00  -7.00 128.00 208.00  224.00
 52.00   -3.00  -7.00 128.00 141.00  156.00
 53.00   -1.00  -7.00 128.00  18.00   39.00
 54.00    1.00  -7.00 128.00  89.00  107.00
 55.00    3.00  -7.00 128.00  15.00   36.00
 56.00    5.00  -7.00 128.00   9.00   31.00
 57.00    7.00  -7.00 128.00  87.00  110.00
 58.00    7.00  -5.00 128.00  69.00   96.00
 59.00    7.00  -3.00 128.00 108.00  130.00
 60.00    7.00  -1.00 128.00 164.00  183.00
 61.00    9.00   1.00 100.00  66.00   81.00
 62.00    9.00   3.00 100.00  78.00   95.00
 63.00    9.00   5.00 100.00  31.00   60.00
 64.00    9.00   7.00 100.00 137.00  158.00
 65.00    9.00   9.00 100.00 146.00  174.00
 66.00    7.00   9.00 100.00  81.00  110.00
 67.00    5.00   9.00 100.00  50.00   65.00
 68.00    3.00   9.00 100.00 181.00  200.00
 69.00    1.00   9.00 100.00 166.00  188.00
 70.00   -1.00   9.00 100.00  72.00   92.00
 71.00   -3.00   9.00 100.00  86.00  107.00
 72.00   -5.00   9.00 100.00 161.00  191.00
 73.00   -7.00   9.00 100.00 173.00  202.00
 74.00   -9.00   9.00 100.00  88.00  105.00
 75.00   -9.00   7.00 100.00 144.00  160.00
 76.00   -9.00   5.00 100.00 118.00  140.00
 77.00   -9.00   3.00 100.00 126.00  154.00
 78.00   -9.00   1.00 100.00  21.00   51.00
 79.00   -9.00  -1.00 100.00 136.00  164.00
 80.00   -9.00  -3.00 100.00  23.00   44.00
 81.00   -9.00  -5.00 100.00  50.00   72.00
 82.00   -9.00  -7.00 100.00 137.00  154.00
 83.00   -9.00  -9.00 100.00  26.00   44.00
 84.00   -7.00  -9.00 100.00  82.00  102.00
 85.00   -5.00  -9.00 100.00 156.00  173.00
 86.00   -3.00  -9.00 100.00 198.00  222.00
 87.00   -1.00  -9.00 100.00 158.00  181.00
 88.00    1.00  -9.00 100.00  91.00  110.00
 89.00    3.00  -9.00 100.00  11.00   31.00
 90.00    5.00  -9.00 100.00  28.00   52.00
 91.00    7.00  -9.00 100.00 145.00  171.00
 92.00    9.00  -9.00 100.00 168.00  191.00
 93.00    9.00  -7.00 100.00 169.00  184.00
 94.00    9.00  -5.00 100.00 182.00  204.00
 95.00    9.00  -3.00 100.00 194.00  210.00
 96.00    9.00  -1.00 100.00  98.00  115.00
 97.00   11.00   1.00  81.00  23.00   41.00
 98.00   11.00   3.00  81.00 136.00  151.00
 99.00   11.00   5.00  81.00 156.00  174.00
100.00   11.00   7.00  81.00 129.00  158.00
101.00   11.00   9.00  81.00 189.00  205.00
102.00   11.00  11.00  81.00 152.00  168.00
103.00    9.00  11.00  81.00 123.00  140.00
104.00    7.00  11.00  81.00 117.00  144.00
105.00    5.00  11.00  81.00  80.00  110.00
106.00    3.00  11.00  81.00 187.00  202.00
107.00    1.00  11.00  81.00 169.00  185.00
108.00   -1.00  11.00  81.00  16.00   33.00
109.00   -3.00  11.00  81.00  49.00   70.00
110.00   -5.00  11.00  81.00  78.00  100.00
111.00   -7.00  11.00  81.00  10.00   38.00
112.00   -9.00  11.00  81.00  54.00   80.00
113.00  -11.00  11.00  81.00  16.00   32.00
114.00  -11.00   9.00  81.00 173.00  188.00
115.00  -11.00   7.00  81.00 161.00  187.00
116.00  -11.00   5.00  81.00 142.00  159.00
117.00  -11.00   3.00  81.00 138.00  164.00
118.00  -11.00   1.00  81.00  10.00   39.00
119.00  -11.00  -1.00  81.00  64.00   80.00
120.00  -11.00  -3.00  81.00  21.00   44.00
121.00  -11.00  -5.00  81.00 103.00  122.00
122.00  -11.00  -7.00  81.00 148.00  164.00
123.00  -11.00  -9.00  81.00 124.00  141.00
124.00  -11.00 -11.00  81.00  24.00   45.00
125.00   -9.00 -11.00  81.00 149.00  168.00
126.00   -7.00 -11.00  81.00  85.00  114.00
127.00   -5.00 -11.00  81.00  67.00   97.00
128.00   -3.00 -11.00  81.00   5.00   31.00
129.00   -1.00 -11.00  81.00 137.00  159.00
130.00    1.00 -11.00  81.00  77.00   95.00
131.00    3.00 -11.00  81.00 110.00  129.00
132.00    5.00 -11.00  81.00 163.00  184.00
133.00    7.00 -11.00  81.00 162.00  191.00
134.00    9.00 -11.00  81.00 165.00  183.00
135.00   11.00 -11.00  81.00  88.00  109.00
136.00   11.00  -9.00  81.00 125.00  147.00
137.00   11.00  -7.00  81.00  89.00  117.00
138.00   11.00  -5.00  81.00  59.00   87.00
139.00   11.00  -3.00  81.00  67.00   90.00
140.00   11.00  -1.00  81.00  85.00  106.00
141.00   13.00   1.00  69.00  82.00  109.00
142.00   13.00   3.00  69.00  44.00   69.00
143.00   13.00   5.00  69.00  38.00   60.00
144.00   13.00   7.00  69.00  26.00   52.00
145.00   13.00   9.00  69.00  79.00  105.00
146.00   13.00  11.00  69.00  19.00   37.00
147.00   13.00  13.00  69.00 140.00  158.00
148.00   11.00  13.00  69.00 183.00  203.00
149.00    9.00  13.00  69.00  79.00  100.00
150.00    7.00  13.00  69.00 177.00  194.00
151.00    5.00  13.00  69.00 130.00  157.00
152.00    3.00  13.00  69.00 169.00  186.00
153.00    1.00  13.00  69.00  87.00  107.00
154.00   -1.00  13.00  69.00  29.00   58.00
155.00   -3.00  13.00  69.00 172.00  200.00
156.00   -5.00  13.00  69.00 152.00  179.00
157.00   -7.00  13.00  69.00 160.00  183.00
158.00   -9.00  13.00  69.00 200.00  225.00
159.00  -11.00  13.00  69.00 181.00  210.00
160.00  -13.00  13.00  69.00 205.00  220.00
161.00  -13.00  11.00  69.00  96.00  115.00
162.00  -13.00   9.00  69.00 108.00  124.00
163.00  -13.00   7.00  69.00 125.00  153.00
164.00  -13.00   5.00  69.00  51.00   79.00
165.00  -13.00   3.00  69.00 143.00  162.00
166.00  -13.00   1.00  69.00  74.00  104.00
167.00  -13.00  -1.00  69.00 151.00  167.00
168.00  -13.00  -3.00  69.00  68.00   84.00
169.00  -13.00  -5.00  69.00  46.00   72.00
170.00  -13.00  -7.00  69.00  86.00  106.00
171.00  -13.00  -9.00  69.00 134.00  158.00
172.00  -13.00 -11.00  69.00 105.00  124.00
173.00  -13.00 -13.00  69.00 122.00  150.00
174.00  -11.00 -13.00  69.00  60.00   87.00
175.00   -9.00 -13.00  69.00  33.00   51.00
176.00   -7.00 -13.00  69.00 179.00  203.00
177.00   -5.00 -13.00  69.00 172.00  201.00
178.00   -3.00 -13.00  69.00 183.00  206.00
179.00   -1.00 -13.00  69.00  84.00  104.00
180.00    1.00 -13.00  69.00 144.00  160.00
181.00    3.00 -13.00  69.00  96.00  120.00
182.00    5.00 -13.00  69.00 157.00  183.00
183.00    7.00 -13.00  69.00  72.00   97.00
184.00    9.00 -13.00  69.00 128.00  148.00
185.00   11.00 -13.00  69.00 127.00  155.00
186.00   13.00 -13.00  69.00 174.00  202.00
187.00   13.00 -11.00  69.00 144.00  161.00
188.00   13.00  -9.00  69.00  56.00   85.00
189.00   13.00  -7.00  69.00   7.00   34.00
190.00   13.00  -5.00  69.00 164.00  194.00
191.00   13.00  -3.00  69.00  72.00   95.00
192.00   13.00  -1.00  69.00  38.00   58.00
193.00   15.00   1.00  60.00 120.00  141.00
194.00   15.00   3.00  60.00  52.00   76.00
195.00   15.00   5.00  60.00  94.00  120.00
196.00   15.00   7.00  60.00  68.00   91.00
197.00   15.00   9.00  60.00 152.00  180.00
198.00   15.00  11.00  60.00 122.00  146.00
199.00   15.00  13.00  60.00 102.00  120.00
200.00   15.00  15.00  60.00  55.00   84.00
201.00   13.00  15.00  60.00  39.00   69.00
202.00   11.00  15.00  60.00  36.00   58.00
203.00    9.00  15.00  60.00 101.00  127.00
204.00    7.00  15.00  60.00  86.00  101.00
205.00    5.00  15.00  60.00  91.00  120.00
206.00    3.00  15.00  60.00 114.00  132.00
207.00    1.00  15.00  60.00  51.00   76.00
208.00   -1.00  15.00  60.00   5.00   31.00
209.00   -3.00  15.00  60.00  53.00   79.00
210.00   -5.00  15.00  60.00  31.00   61.00
211.00   -7.00  15.00  60.00 208.00  223.00
212.00   -9.00  15.00  60.00 177.00  204.00
213.00  -11.00  15.00  60.00 197.00  214.00
214.00  -13.00  15.00  60.00 116.00  146.00
215.00  -15.00  15.00  60.00 196.00  226.00
216.00  -15.00  13.00  60.00 160.00  183.00
217.00  -15.00  11.00  60.00  69.00   88.00
218.00  -15.00   9.00  60.00  93.00  122.00
219.00  -15.00   7.00  60.00  63.00   85.00
220.00  -15.00   5.00  60.00  81.00   99.00
221.00  -15.00   3.00  60.00 146.00  167.00
222.00  -15.00   1.00  60.00 102.00  124.00
223.00  -15.00  -1.00  60.00 116.00  141.00
224.00  -15.00  -3.00  60.00 142.00  159.00
225.00  -15.00  -5.00  60.00  92.00  122.00
226.00  -15.00  -7.00  60.00   7.00   35.00
227.00  -15.00  -9.00  60.00 138.00  154.00
228.00  -15.00 -11.00  60.00  94.00  123.00
229.00  -15.00 -13.00  60.00 140.00  161.00
230.00  -15.00 -15.00  60.00 148.00  177.00
231.00  -13.00 -15.00  60.00 202.00  222.00
232.00  -11.00 -15.00  60.00 108.00  131.00
233.00   -9.00 -15.00  60.00  36.00   55.00
234.00   -7.00 -15.00  60.00 167.00  187.00
235.00   -5.00 -15.00  60.00 159.00  182.00
236.00   -3.00 -15.00  60.00  79.00   99.00
237.00   -1.00 -15.00  60.00 176.00  195.00
238.00    1.00 -15.00  60.00   8.00   35.00
239.00    3.00 -15.00  60.00  26.00   55.00
240.00    5.00 -15.00  60.00  50.00   75.00
241.00    7.00 -15.00  60.00 125.00  145.00
242.00    9.00 -15.00  60.00 179.00  206.00
243.00   11.00 -15.00  60.00 142.00  166.00
244.00   13.00 -15.00  60.00 146.00  162.00
245.00   15.00 -15.00  60.00 208.00  223.00
246.00   15.00 -13.00  60.00  47.00   74.00
247.00   15.00 -11.00  60.00 112.00  130.00
248.00   15.00  -9.00  60.00 181.00  200.00
249.00   15.00  -7.00  60.00 153.00  175.00
250.00   15.00  -5.00  60.00 165.00  187.00
251.00   15.00  -3.00  60.00  57.00   83.00
252.00   15.00  -1.00  60.00 186.00  208.00
Node - number of items - h - w for each item
    0   0
    1   1    1    1
    2   1    1    1
    3   1    1    1
    4   1    1    1
    5   1    1    1
    6   1    1    1
    7   1    1    1
    8   1    1    1
    9   1    1    1
   10   1    1    1
   11   1    1    1
   12   1    1    1
   13   1    1    1
   14   1    1    1
   15   1    1    1
   16   1    1    1
   17   1    1    1
   18   1    1    1
   19   1    1    1
   20   1    1    1
   21   1    1    1
   22   1    1    1
   23   1    1    1
   24   1    1    1
   25   1    1    1
   26   1    1    1
   27   1    1    1
   28   1    1    1
   29   1    1    1
   30   1    1    1
   31   1    1    1
   32   1    1    1
   33   1    1    1
   34   1    1    1
   35   1    1    1
   36   1    1    1
   37   1    1    1
   38   1    1    1
   39   1    1    1
   40   1    1    1
   41   1    1    1
   42   1    1    1
   43   1    1    1
   44   1    1    1
   45   1    1    1
   46   1    1    1
   47   1    1    1
   48   1    1    1
   49   1    1    1
   50   1    1    1
   51   1    1    1
   52   1    1    1
   53   1    1    1
   54   1    1    1
   55   1    1    1
   56   1    1    1
   57   1    1    1
   58   1    1    1
   59   1    1    1
   60   1    1    1
   61   1    1    1
   62   1    1    1
   63   1    1    1
   64   1    1    1
   65   1    1    1
   66   1    1    1
   67   1    1    1
   68   1    1    1
   69   1    1    1
   70   1    1    1
   71   1    1    1
   72   1    1    1
   73   1    1    1
   74   1    1    1
   75   1    1    1
   76   1    1    1
   77   1    1    1
   78   1    1    1
   79   1    1    1
   80   1    1    1
   81   1    1    1
   82   1    1    1
   83   1    1    1
   84   1    1    1
   85   1    1    1
   86   1    1    1
   87   1    1    1
   88   1    1    1
   89   1    1    1
   90   1    1    1
   91   1    1    1
   92   1    1    1
   93   1    1    1
   94   1    1    1
   95   1    1    1
   96   1    1    1
   97   1    1    1
   98   1    1    1
   99   1    1    1
  100   1    1    1
  101   1    1    1
  102   1    1    1
  103   1    1    1
  104   1    1    1
  105   1    1    1
  106   1    1    1
  107   1    1    1
  108   1    1    1
  109   1    1    1
  110   1    1    1
  111   1    1    1
  112   1    1    1
  113   1    1    1
  114   1    1    1
  115   1    1    1
  116   1    1    1
  117   1    1    1
  118   1    1    1
  119   1    1    1
  120   1    1    1
  121   1    1    1
  122   1    1    1
  123   1    1    1
  124   1    1    1
  125   1    1    1
  126   1    1    1
  127   1    1    1
  128   1    1    1
  129   1    1    1
  130   1    1    1
  131   1    1    1
  132   1    1    1
  133   1    1    1
  134   1    1    1
  135   1    1    1
  136   1    1    1
  137   1    1    1
  138   1    1    1
  139   1    1    1
  140   1    1    1
  141   1    1    1
  142   1    1    1
  143   1    1    1
  144   1    1    1
  145   1    1    1
  146   1    1    1
  147   1    1    1
  148   1    1    1
  149   1    1    1
  150   1    1    1
  151   1    1    1
  152   1    1    1
  153   1    1    1
  154   1    1    1
  155   1    1    1
  156   1    1    1
  157   1    1    1
  158   1    1    1
  159   1    1    1
  160   1    1    1
  161   1    1    1
  162   1    1    1
  163   1    1    1
  164   1    1    1
  165   1    1    1
  166   1    1    1
  167   1    1    1
  168   1    1    1
  169   1    1    1
  170   1    1    1
  171   1    1    1
  172   1    1    1
  173   1    1    1
  174   1    1    1
  175   1    1    1
  176   1    1    1
  177   1    1    1
  178   1    1    1
  179   1    1    1
  180   1    1    1
  181   1    1    1
  182   1    1    1
  183   1    1    1
  184   1    1    1
  185   1    1    1
  186   1    1    1
  187   1    1    1
  188   1    1    1
  189   1    1    1
  190   1    1    1
  191   1    1    1
  192   1    1    1
  193   1    1    1
  194   1    1    1
  195   1    1    1
  196   1    1    1
  197   1    1    1
  198   1    1    1
  199   1    1    1
  200   1    1    1
  201   1    1    1
  202   1    1    1
  203   1    1    1
  204   1    1    1
  205   1    1    1
  206   1    1    1
  207   1    1    1
  208   1    1    1
  209   1    1    1
  210   1    1    1
  211   1    1    1
  212   1    1    1
  213   1    1    1
  214   1    1    1
  215   1    1    1
  216   1    1    1
  217   1    1    1
  218   1    1    1
  219   1    1    1
  220   1    1    1
  221   1    1    1
  222   1    1    1
  223   1    1    1
  224   1    1    1
  225   1    1    1
  226   1    1    1
  227   1    1    1
  228   1    1    1
  229   1    1    1
  230   1    1    1
  231   1    1    1
  232   1    1    1
  233   1    1    1
  234   1    1    1
  235   1    1    1
  236   1    1    1
  237   1    1    1
  238   1    1    1
  239   1    1    1
  240   1    1    1
  241   1    1    1
  242   1    1    1
  243   1    1    1
  244   1    1    1
  245   1    1    1
  246   1    1    1
  247   1    1    1
  248   1    1    1
  249   1    1    1
  250   1    1    1
  251   1    1    1
  252   1    1    1